c This Formular is generated by mcnf
c
c    horn? no 
c    forced? no 
c    mixed sat? no 
c    clause length = 3 
c
p cnf 20  91 
 17 18 20 0
-17 5 -3 0
-10 -8 -3 0
17 -15 -20 0
-1 -20 19 0
-12 17 5 0
1 -17 15 0
-17 3 10 0
-12 17 -3 0
11 -2 -16 0
17 -9 -11 0
11 1 8 0
-7 -20 4 0
5 11 2 0
-3 12 5 0
12 -17 -11 0
-13 -9 -11 0
-20 -15 4 0
1 3 -9 0
11 -17 -16 0
1 -14 -8 0
%
0

90 42 85 34 68 76 4 71 80 60 11 81 64 83 27 77 2 22 70 77
